32	0

0	2	2	4
3	1	3
10	1	5
9	1	5
4	1	6
2	2	7	8
9	1	9
10	1	9
2	1	10
4	1	11
7	1	12
9	1	13
3	1	14
6	1	15
3	1	16
6	1	17
6	1	18
5	2	19	20
2	1	21
7	1	21
8	1	22
1	1	23
1	1	24
6	1	25
1	2	26	27
8	1	28
8	1	28
10	1	29
7	1	30
4	1	31
10	1	32
0	0
